Nodes = {"Leipzig", "Hamburg", "Hannover", "Stuttgart", "Muenchen", "Koeln", "Erlangen", "Berlin", "Essen", "Frankfurt", "IP"};
Arcs = {<"Leipzig","Hamburg",1,11,1>, <"Leipzig","Hannover",1,8,1>, <"Leipzig","Stuttgart",1,18,1>, <"Leipzig","Muenchen",1,10,1>, <"Leipzig","Koeln",1,27,1>, <"Leipzig","Erlangen",1,5,1>, <"Leipzig","Berlin",1,2,1>, <"Leipzig","Essen",1,29,1>, <"Leipzig","Frankfurt",1,15,1>, <"Leipzig","IP",1,32,0>, <"Hamburg","Leipzig",1,11,1>, <"Hamburg","Hannover",1,1,1>, <"Hamburg","Stuttgart",1,24,1>, <"Hamburg","Muenchen",1,31,1>, <"Hamburg","Koeln",1,16,1>, <"Hamburg","Erlangen",1,17,1>, <"Hamburg","Berlin",1,12,1>, <"Hamburg","Essen",1,13,1>, <"Hamburg","Frankfurt",1,13,1>, <"Hamburg","IP",1,8,0>, <"Hannover","Leipzig",1,8,1>, <"Hannover","Hamburg",1,1,1>, <"Hannover","Stuttgart",1,14,1>, <"Hannover","Muenchen",1,21,1>, <"Hannover","Koeln",1,9,1>, <"Hannover","Erlangen",1,10,1>, <"Hannover","Berlin",1,13,1>, <"Hannover","Essen",1,8,1>, <"Hannover","Frankfurt",1,6,1>, <"Hannover","IP",1,8,1>, <"Stuttgart","Leipzig",1,18,1>, <"Stuttgart","Hamburg",1,24,1>, <"Stuttgart","Hannover",1,14,1>, <"Stuttgart","Muenchen",1,7,1>, <"Stuttgart","Koeln",1,8,1>, <"Stuttgart","Erlangen",1,4,1>, <"Stuttgart","Berlin",1,31,1>, <"Stuttgart","Essen",1,12,1>, <"Stuttgart","Frankfurt",1,2,1>, <"Stuttgart","IP",1,27,0>, <"Muenchen","Leipzig",1,10,1>, <"Muenchen","Hamburg",1,31,1>, <"Muenchen","Hannover",1,21,1>, <"Muenchen","Stuttgart",1,7,1>, <"Muenchen","Koeln",1,26,1>, <"Muenchen","Erlangen",1,2,1>, <"Muenchen","Berlin",1,20,1>, <"Muenchen","Essen",1,32,1>, <"Muenchen","Frankfurt",1,12,1>, <"Muenchen","IP",1,48,0>, <"Koeln","Leipzig",1,27,1>, <"Koeln","Hamburg",1,16,1>, <"Koeln","Hannover",1,9,1>, <"Koeln","Stuttgart",1,8,1>, <"Koeln","Muenchen",1,26,1>, <"Koeln","Erlangen",1,16,1>, <"Koeln","Berlin",1,40,1>, <"Koeln","Essen",1,1,1>, <"Koeln","Frankfurt",1,3,1>, <"Koeln","IP",1,8,0>, <"Erlangen","Leipzig",1,5,1>, <"Erlangen","Hamburg",1,17,1>, <"Erlangen","Hannover",1,10,1>, <"Erlangen","Stuttgart",1,4,1>, <"Erlangen","Muenchen",1,2,1>, <"Erlangen","Koeln",1,16,1>, <"Erlangen","Berlin",1,13,1>, <"Erlangen","Essen",1,20,1>, <"Erlangen","Frankfurt",1,6,1>, <"Erlangen","IP",1,31,0>, <"Berlin","Leipzig",1,2,1>, <"Berlin","Hamburg",1,12,1>, <"Berlin","Hannover",1,13,1>, <"Berlin","Stuttgart",1,31,1>, <"Berlin","Muenchen",1,20,1>, <"Berlin","Koeln",1,40,1>, <"Berlin","Erlangen",1,13,1>, <"Berlin","Essen",1,40,1>, <"Berlin","Frankfurt",1,26,1>, <"Berlin","IP",1,38,0>, <"Essen","Leipzig",1,29,1>, <"Essen","Hamburg",1,13,1>, <"Essen","Hannover",1,8,1>, <"Essen","Stuttgart",1,12,1>, <"Essen","Muenchen",1,32,1>, <"Essen","Koeln",1,1,1>, <"Essen","Erlangen",1,20,1>, <"Essen","Berlin",1,40,1>, <"Essen","Frankfurt",1,5,1>, <"Essen","IP",1,5,0>, <"Frankfurt","Leipzig",1,15,1>, <"Frankfurt","Hamburg",1,13,1>, <"Frankfurt","Hannover",1,6,1>, <"Frankfurt","Stuttgart",1,2,1>, <"Frankfurt","Muenchen",1,12,1>, <"Frankfurt","Koeln",1,3,1>, <"Frankfurt","Erlangen",1,6,1>, <"Frankfurt","Berlin",1,26,1>, <"Frankfurt","Essen",1,5,1>, <"Frankfurt","IP",1,14,1>, <"IP","Leipzig",1,32,0>, <"IP","Hamburg",1,8,0>, <"IP","Hannover",1,8,1>, <"IP","Stuttgart",1,27,0>, <"IP","Muenchen",1,48,0>, <"IP","Koeln",1,8,0>, <"IP","Erlangen",1,31,0>, <"IP","Berlin",1,38,0>, <"IP","Essen",1,5,0>, <"IP","Frankfurt",1,14,1>};
Demands = {<"Leipzig","Hamburg",10>, <"Leipzig","Hannover",20>, <"Leipzig","Stuttgart",30>, <"Leipzig","Muenchen",40>, <"Leipzig","Koeln",50>, <"Leipzig","Erlangen",60>, <"Leipzig","Berlin",70>, <"Leipzig","Essen",80>, <"Leipzig","Frankfurt",90>, <"Leipzig","IP",100>, <"Hamburg","Leipzig",10>, <"Hamburg","Hannover",10>, <"Hamburg","Stuttgart",20>, <"Hamburg","Muenchen",30>, <"Hamburg","Koeln",40>, <"Hamburg","Erlangen",50>, <"Hamburg","Berlin",60>, <"Hamburg","Essen",70>, <"Hamburg","Frankfurt",80>, <"Hamburg","IP",90>, <"Hannover","Leipzig",20>, <"Hannover","Hamburg",10>, <"Hannover","Stuttgart",10>, <"Hannover","Muenchen",20>, <"Hannover","Koeln",30>, <"Hannover","Erlangen",40>, <"Hannover","Berlin",50>, <"Hannover","Essen",60>, <"Hannover","Frankfurt",70>, <"Hannover","IP",80>, <"Stuttgart","Leipzig",30>, <"Stuttgart","Hamburg",20>, <"Stuttgart","Hannover",10>, <"Stuttgart","Muenchen",10>, <"Stuttgart","Koeln",20>, <"Stuttgart","Erlangen",30>, <"Stuttgart","Berlin",40>, <"Stuttgart","Essen",50>, <"Stuttgart","Frankfurt",60>, <"Stuttgart","IP",70>, <"Muenchen","Leipzig",40>, <"Muenchen","Hamburg",30>, <"Muenchen","Hannover",20>, <"Muenchen","Stuttgart",10>, <"Muenchen","Koeln",10>, <"Muenchen","Erlangen",20>, <"Muenchen","Berlin",30>, <"Muenchen","Essen",40>, <"Muenchen","Frankfurt",50>, <"Muenchen","IP",60>, <"Koeln","Leipzig",50>, <"Koeln","Hamburg",40>, <"Koeln","Hannover",30>, <"Koeln","Stuttgart",20>, <"Koeln","Muenchen",10>, <"Koeln","Erlangen",10>, <"Koeln","Berlin",20>, <"Koeln","Essen",30>, <"Koeln","Frankfurt",40>, <"Koeln","IP",50>, <"Erlangen","Leipzig",60>, <"Erlangen","Hamburg",50>, <"Erlangen","Hannover",40>, <"Erlangen","Stuttgart",30>, <"Erlangen","Muenchen",20>, <"Erlangen","Koeln",10>, <"Erlangen","Berlin",10>, <"Erlangen","Essen",20>, <"Erlangen","Frankfurt",30>, <"Erlangen","IP",40>, <"Berlin","Leipzig",70>, <"Berlin","Hamburg",60>, <"Berlin","Hannover",50>, <"Berlin","Stuttgart",40>, <"Berlin","Muenchen",30>, <"Berlin","Koeln",20>, <"Berlin","Erlangen",10>, <"Berlin","Essen",10>, <"Berlin","Frankfurt",20>, <"Berlin","IP",30>, <"Essen","Leipzig",80>, <"Essen","Hamburg",70>, <"Essen","Hannover",60>, <"Essen","Stuttgart",50>, <"Essen","Muenchen",40>, <"Essen","Koeln",30>, <"Essen","Erlangen",20>, <"Essen","Berlin",10>, <"Essen","Frankfurt",10>, <"Essen","IP",20>, <"Frankfurt","Leipzig",90>, <"Frankfurt","Hamburg",80>, <"Frankfurt","Hannover",70>, <"Frankfurt","Stuttgart",60>, <"Frankfurt","Muenchen",50>, <"Frankfurt","Koeln",40>, <"Frankfurt","Erlangen",30>, <"Frankfurt","Berlin",20>, <"Frankfurt","Essen",10>, <"Frankfurt","IP",10>, <"IP","Leipzig",100>, <"IP","Hamburg",90>, <"IP","Hannover",80>, <"IP","Stuttgart",70>, <"IP","Muenchen",60>, <"IP","Koeln",50>, <"IP","Erlangen",40>, <"IP","Berlin",30>, <"IP","Essen",20>, <"IP","Frankfurt",10>};
